units lj
dimension 3
atom_style atomic
pair_style lj/cut 2.5
boundary p p p

region simulation_box block -20 20 -20 20 -20 20
create_box 2 simulation_box
region mycylin cylinder z 0 0 10 INF INF side in
region mycylou cylinder z 0 0 10 INF INF side out
create_atoms 1 random 1000 321341 mycylou
create_atoms 2 random 0150 123243 mycylin

mass 1 1
mass 2 2
pair_coeff 1 1 1.0 1.0
pair_coeff 2 2 0.5 3.0
neigh_modify every 1 delay 5 check yes

thermo 10
dump mydmp all atom 10 dump.min.lammpstrj
minimize 1.0e-4 1.0e-6 1000 10000
write_data minimized_coordinate.data

# thermo 1000
# variable kinetic_energy equal ke
# variable potential_energy equal pe
# variable pressure equal press
# fix myat1 all ave/time 10 1 10 v_kinetic_energy v_potential_energy file energy.dat
# dump mydmp all atom 1000 dump.lammpstrj

# fix mynve all nve
# fix mylgv all langevin 1.0 1.0 0.1 1530917
# fix 2dpolice all enforce2d
# timestep 0.005
# run 500000
